c is-unsat
p cnf 15 94
-15 3 -14 0
-9 -8 10 0
-10 -13 -15 0
15 -10 -1 0
6 -12 -15 0
-11 3 9 0
-6 -13 15 0
-1 6 -13 0
-3 -11 -14 0
-14 2 -15 0
5 13 12 0
-10 -3 -7 0
11 2 -12 0
13 12 -9 0
-3 11 -9 0
-5 2 -13 0
-7 -14 -2 0
-15 -2 -5 0
-7 -12 -6 0
-13 -6 12 0
-11 -1 13 0
11 -8 5 0
-4 -1 -5 0
1 -4 13 0
10 -9 -13 0
6 -9 -15 0
14 13 3 0
-6 15 -13 0
-13 -5 -15 0
5 4 -15 0
5 -7 10 0
-15 -9 -2 0
-5 -10 -7 0
-15 5 -8 0
-4 -3 -5 0
-5 2 9 0
4 6 -3 0
-3 -13 -5 0
2 -5 7 0
-11 5 -9 0
-13 -9 8 0
5 9 1 0
-8 -11 -6 0
-9 13 -14 0
-2 5 7 0
-3 13 -12 0
-4 11 -12 0
-6 -2 -1 0
5 -12 -10 0
3 -14 15 0
-12 -8 2 0
6 14 1 0
-2 -13 -12 0
1 -4 -9 0
1 -14 -2 0
-12 -8 -9 0
-12 -9 6 0
-1 -2 -9 0
-7 1 8 0
-12 -13 -9 0
-4 -11 -13 0
15 -7 -2 0
-2 15 -14 0
-7 -12 -14 0
-7 -3 1 0
-2 -1 -11 0
-15 2 -10 0
2 -6 -3 0
-7 2 3 0
9 -6 7 0
-9 -14 -7 0
-5 -1 -8 0
-9 -4 11 0
2 -15 7 0
-15 -4 -10 0
13 1 -10 0
-11 14 -6 0
-9 -8 6 0
-11 -6 -13 0
-8 13 -7 0
-8 -4 -9 0
-3 15 -12 0
14 -7 8 0
-1 -14 10 0
-2 -14 -6 0
-3 -2 -5 0
1 2 -4 0
11 -5 -10 0
-11 12 5 0
13 -14 -3 0
12 7 6 0
5 10 1 0
-13 6 -1 0
-12 -7 -2 0
